qbf_easy_train/easy_1504_SAT.qdimacs
p cnf 23 54
a 9 12 5 0
e 1 2 3 4 6 7 8 10 11 13 14 15 16 17 18 19 20 21 22 23 0
2 1 0
2 -1 0
5 3 0
5 -4 0
-3 4 -5 0
-7 -5 0
-7 -6 0
5 6 7 0
-8 2 0
-8 -7 0
-2 7 8 0
10 9 0
10 9 0
-9 -10 0
-11 12 -13 0
11 -12 -13 0
-11 -12 13 0
11 12 13 0
-13 14 0
13 14 0
15 11 -16 0
-15 -11 -16 0
15 -11 16 0
-15 11 16 0
17 13 0
17 -4 0
-13 4 -17 0
18 -5 0
18 3 0
5 -3 -18 0
17 -18 -19 0
-17 18 -19 0
17 18 19 0
-17 -18 19 0
20 16 0
20 19 0
-16 -19 -20 0
-21 14 0
-21 -20 0
-14 20 21 0
-10 -21 -22 0
10 21 -22 0
-10 21 22 0
10 -21 22 0
-8 -22 -23 0
8 22 -23 0
-8 22 23 0
8 -22 23 0
14 -16 -18 0
1 14 23 0
-19 2 8 3 15 1 16 0
-22 -6 12 -23 2 18 0
3 -6 15 -4 -17 2 0
23 0
