sat_easy_train/easy_1504_SAT.dimacs
p cnf 130 435
-1 2 -3 0
1 -2 -3 0
-1 -2 3 0
1 2 3 0
5 1 0
5 4 0
-1 -4 -5 0
6 -5 0
6 1 0
5 -1 -6 0
-7 6 0
-7 -5 0
-6 5 7 0
-3 7 -8 0
3 -7 -8 0
-3 -7 8 0
3 7 8 0
-10 9 0
-10 3 0
-9 -3 10 0
13 11 0
13 -12 0
-11 12 -13 0
15 -14 0
15 14 0
-15 -16 -17 0
15 16 -17 0
-15 16 17 0
15 -16 17 0
-13 -17 -18 0
13 17 -18 0
-13 17 18 0
13 -17 18 0
19 -10 0
19 18 0
10 -18 -19 0
-5 20 0
5 20 0
22 20 0
22 -21 0
-20 21 -22 0
9 22 -23 0
-9 -22 -23 0
9 -22 23 0
-9 22 23 0
23 2 -24 0
-23 -2 -24 0
23 -2 24 0
-23 2 24 0
25 -9 -26 0
-25 9 -26 0
25 9 26 0
-25 -9 26 0
-24 -26 -27 0
24 26 -27 0
-24 26 27 0
24 -26 27 0
12 -11 -28 0
-12 11 -28 0
12 11 28 0
-12 -11 28 0
14 -28 -29 0
-14 28 -29 0
14 28 29 0
-14 -28 29 0
-30 -27 0
-30 -29 0
27 29 30 0
-31 25 0
-31 -16 0
-25 16 31 0
14 31 -32 0
-14 -31 -32 0
14 -31 32 0
-14 31 32 0
3 2 -33 0
-3 -2 -33 0
3 -2 33 0
-3 2 33 0
34 -29 0
34 25 0
29 -25 -34 0
-35 22 0
-35 -5 0
-22 5 35 0
-34 -35 -36 0
34 35 -36 0
-34 35 36 0
34 -35 36 0
-37 -33 0
-37 36 0
33 -36 37 0
-38 32 0
-38 37 0
-32 -37 38 0
-22 -29 -39 0
22 29 -39 0
-22 29 39 0
22 -29 39 0
-40 -28 -41 0
40 28 -41 0
-40 28 41 0
40 -28 41 0
-42 -40 0
-42 -41 0
40 41 42 0
-43 -39 0
-43 42 0
39 -42 43 0
-44 38 0
-44 43 0
-38 -43 44 0
-45 26 0
-45 -14 0
-26 14 45 0
45 -1 -47 0
-45 1 -47 0
45 1 47 0
-45 -1 47 0
48 -46 0
48 47 0
46 -47 -48 0
49 -45 0
49 48 0
45 -48 -49 0
50 49 0
50 -32 0
-49 32 -50 0
46 -28 -51 0
-46 28 -51 0
46 28 51 0
-46 -28 51 0
-52 -50 0
-52 51 0
50 -51 52 0
-44 52 -53 0
44 -52 -53 0
-44 -52 53 0
44 52 53 0
-55 34 0
-55 37 0
-34 -37 55 0
56 40 0
56 55 0
-40 -55 -56 0
57 54 0
57 56 0
-54 -56 -57 0
53 57 -58 0
-53 -57 -58 0
53 -57 58 0
-53 57 58 0
-39 20 -59 0
39 -20 -59 0
-39 -20 59 0
39 20 59 0
-60 -14 0
-60 46 0
14 -46 60 0
-61 -60 0
-61 36 0
60 -36 61 0
-62 -59 0
-62 -61 0
59 61 62 0
5 25 -63 0
-5 -25 -63 0
5 -25 63 0
-5 25 63 0
63 14 -64 0
-63 -14 -64 0
63 -14 64 0
-63 14 64 0
-66 -11 0
-66 -65 0
11 65 66 0
67 9 0
67 66 0
-9 -66 -67 0
-64 67 -68 0
64 -67 -68 0
-64 -67 68 0
64 67 68 0
-69 62 0
-69 68 0
-62 -68 69 0
70 -11 0
70 3 0
11 -3 -70 0
71 70 0
71 65 0
-70 -65 -71 0
28 -71 -72 0
-28 71 -72 0
28 71 72 0
-28 -71 72 0
-73 -69 0
-73 72 0
69 -72 73 0
-65 -3 -74 0
65 3 -74 0
-65 3 74 0
65 -3 74 0
75 12 0
75 74 0
-12 -74 -75 0
14 33 -76 0
-14 -33 -76 0
14 -33 76 0
-14 33 76 0
77 -75 0
77 -76 0
75 76 -77 0
78 73 0
78 -77 0
-73 77 -78 0
-79 -58 0
-79 -78 0
58 78 79 0
80 -30 0
80 -79 0
30 79 -80 0
19 80 -81 0
-19 -80 -81 0
19 -80 81 0
-19 80 81 0
-82 22 0
-82 -46 0
-22 46 82 0
-83 -61 0
-83 -25 0
61 25 83 0
-84 20 -85 0
84 -20 -85 0
-84 -20 85 0
84 20 85 0
-40 85 -86 0
40 -85 -86 0
-40 -85 86 0
40 85 86 0
35 -86 -87 0
-35 86 -87 0
35 86 87 0
-35 -86 87 0
-88 -83 0
-88 -87 0
83 87 88 0
-89 -56 0
-89 55 0
56 -55 89 0
90 32 0
90 -48 0
-32 48 -90 0
-91 -89 0
-91 90 0
89 -90 91 0
-92 -3 0
-92 84 0
3 -84 92 0
93 92 0
93 -16 0
-92 16 -93 0
-94 -93 0
-94 -84 0
93 84 94 0
-95 11 0
-95 -94 0
-11 94 95 0
96 5 0
96 2 0
-5 -2 -96 0
-97 -95 0
-97 96 0
95 -96 97 0
-98 -11 0
-98 -97 0
11 97 98 0
99 1 0
99 33 0
-1 -33 -99 0
-98 -99 -100 0
98 99 -100 0
-98 99 100 0
98 -99 100 0
-101 91 0
-101 -100 0
-91 100 101 0
102 12 0
102 17 0
-12 -17 -102 0
40 31 -103 0
-40 -31 -103 0
40 -31 103 0
-40 31 103 0
104 -102 0
104 -103 0
102 103 -104 0
-105 -101 0
-105 104 0
101 -104 105 0
-88 -105 -106 0
88 105 -106 0
-88 105 106 0
88 -105 106 0
-107 -92 0
-107 -65 0
92 65 107 0
1 -107 -108 0
-1 107 -108 0
1 107 108 0
-1 -107 108 0
108 -85 -109 0
-108 85 -109 0
108 85 109 0
-108 -85 109 0
-110 -20 0
-110 56 0
20 -56 110 0
111 110 0
111 54 0
-110 -54 -111 0
-112 -65 0
-112 2 0
65 -2 112 0
-113 112 0
-113 107 0
-112 -107 113 0
-114 -112 0
-114 63 0
112 -63 114 0
-115 113 0
-115 -114 0
-113 114 115 0
-116 111 0
-116 -115 0
-111 115 116 0
-109 -116 -117 0
109 116 -117 0
-109 116 117 0
109 -116 117 0
118 -60 0
118 -84 0
60 84 -118 0
119 95 0
119 7 0
-95 -7 -119 0
121 -4 0
121 120 0
4 -120 -121 0
122 119 0
122 -121 0
-119 121 -122 0
-123 4 0
-123 14 0
-4 -14 123 0
-124 -122 0
-124 -123 0
122 123 124 0
125 118 0
125 124 0
-118 -124 -125 0
126 117 0
126 -125 0
-117 125 -126 0
-127 106 0
-127 -126 0
-106 126 127 0
-128 -82 0
-128 -127 0
82 127 128 0
81 -128 -129 0
-81 128 -129 0
81 128 129 0
-81 -128 129 0
130 -8 0
130 -129 0
8 129 -130 0
-63 103 -106 87 5 0
3 47 -82 0
83 -124 -28 0
65 -88 122 0
-23 106 0
68 6 41 -82 0
-72 53 114 -129 0
68 8 0
119 -24 -118 -46 8 -69 0
80 125 0
120 -49 51 84 0
109 -117 -5 0
58 0
122 21 -120 118 0
75 -57 -23 116 106 0
-27 62 0
-113 -41 82 0
-32 -28 99 33 71 0
56 106 -14 101 0
90 110 34 0
-13 -7 0
95 -43 0
-52 -9 -102 -43 0
-120 30 0
81 -86 0
-126 -76 -85 112 103 0
122 -114 -46 -83 -6 0
83 -25 86 122 0
-99 30 0
-122 80 52 0
-10 -4 29 -115 -13 0
-53 89 61 -57 88 0
84 32 -9 -4 0
11 -95 0
-31 -11 127 121 0
22 46 0
-33 92 110 0
98 62 -125 110 -113 0
-20 -100 -87 -68 5 0
-105 -109 107 -114 89 121 0
-5 -107 0
-35 -33 -19 18 -58 0
107 -103 -64 20 0
57 89 66 -41 -71 -127 0
64 -72 -124 114 38 0
36 -129 106 68 0
59 35 0
-108 28 65 0
30 128 -96 102 -120 0
-113 -85 1 0
9 83 0
-116 57 -9 -101 55 71 0
89 78 104 83 23 0
32 23 -116 9 0
-127 122 0
108 58 0
95 108 15 28 -6 0
130 0
